c =========================================================
c Verified stress test CNF
c 100 variables
c 60 clauses
c All clauses are 3-SAT
c No unit clauses, no pure literals
c =========================================================
p cnf 100 54
 1  2  3 0
-1  4  5 0
-2 -4  6 0
-3 -5 -6 0
 7  8  9 0
-7 10 11 0
-8 -10 12 0
-9 -11 -12 0
13 14 15 0
-13 16 17 0
-14 -16 18 0
-15 -17 -18 0
19 20 21 0
-19 22 23 0
-20 -22 24 0
-21 -23 -24 0
25 26 27 0
-25 28 29 0
-26 -28 30 0
-27 -29 -30 0
31 32 33 0
-31 34 35 0
-32 -34 36 0
-33 -35 -36 0
37 38 39 0
-37 40 41 0
-38 -40 42 0
-39 -41 -42 0
43 44 45 0
-43 46 47 0
-44 -46 48 0
-45 -47 -48 0
49 50 51 0
-49 52 53 0
-50 -52 54 0
-51 -53 -54 0
55 56 57 0
-55 58 59 0
-56 -58 60 0
-57 -59 -60 0
61 62 63 0
-61 64 65 0
-62 -64 66 0
-63 -65 -66 0
67 68 69 0
-67 70 71 0
-68 -70 72 0
-69 -71 -72 0
73 74 75 0
-73 76 77 0
-74 -76 78 0
-75 -77 -78 0
79 80 81 0
-79 82 83 0
-80 -82 84 0
-81 -83 -84 0
